benchmarks/bfuzz0/2523524357306072576717684102281491225026.smt2
(set-logic QF_FP)
(declare-const x0 (_ FloatingPoint 8 24))
(declare-const x1 (_ FloatingPoint 8 24))
(declare-const x2 (_ FloatingPoint 8 24))
(declare-const x3 (_ FloatingPoint 8 24))
(declare-const x4 (_ FloatingPoint 8 24))
(declare-const x5 (_ FloatingPoint 8 24))
(declare-const x6 (_ FloatingPoint 8 24))
(declare-const x7 (_ FloatingPoint 8 24))
(declare-const x8 (_ FloatingPoint 8 24))
(declare-const x9 (_ FloatingPoint 8 24))
(declare-const x10 (_ FloatingPoint 8 24))
(declare-const x11 (_ FloatingPoint 8 24))
(declare-const x12 (_ FloatingPoint 8 24))
(declare-const x13 (_ FloatingPoint 8 24))
(declare-const x14 (_ FloatingPoint 8 24))
(declare-const x15 (_ FloatingPoint 8 24))
(declare-const x16 (_ FloatingPoint 8 24))
(declare-const x17 (_ FloatingPoint 8 24))
(assert (fp.geq (fp.add RNE x1 x2) (fp.div RNE x12 x4)))
(assert (fp.gt (fp.neg x4) (fp.add RNE x10 x7)))
(assert (fp.leq (fp.neg x17) (fp.add RNE x10 x4)))
(assert (fp.lt (fp.sub RNE x10 x12) (fp.add RNE x10 x8)))
(assert (fp.leq (fp.div RNE x4 x6) (fp.neg x7)))
(assert (fp.gt (fp.mul RNE x16 x1) (fp.mul RNE x6 x10)))
(assert (fp.lt (fp.div RNE x8 x2) (fp.mul RNE x13 x14)))
(assert (fp.eq (fp.add RNE x1 x0) (fp.neg x3)))
(assert (fp.geq (fp.div RNE x11 x0) (fp.neg x13)))
(assert (fp.lt (fp.mul RNE x16 x11) (fp.add RNE x1 x10)))
(assert (fp.lt (fp.add RNE x0 x2) (fp.neg x11)))
(assert (fp.lt (fp.sub RNE x8 x0) (fp.mul RNE x13 x11)))
(assert (fp.gt (fp.sub RNE x12 x6) (fp.div RNE x17 x0)))
(assert (fp.gt (fp.add RNE x12 x7) (fp.sub RNE x2 x13)))
(assert (fp.eq (fp.div RNE x17 x10) (fp.sub RNE x9 x5)))
(assert (fp.eq (fp.div RNE x10 x16) (fp.sub RNE x7 x6)))
(assert (fp.geq (fp.div RNE x13 x9) (fp.neg x5)))
(assert (fp.gt (fp.add RNE x8 x16) (fp.add RNE x2 x0)))
(check-sat)
