db/data/2523524357306072576717684102281491225026.z3.out
sat
-------------------
115.162303056
